(set-logic QF_UF)
(declare-fun A1 () Bool)
(declare-fun A2 () Bool)
(declare-fun A3 () Bool)
(declare-fun A4 () Bool)
(declare-fun A5 () Bool)
(declare-fun A7 () Bool)
(declare-fun A8 () Bool)
(declare-fun A9 () Bool)
(declare-fun A10 () Bool)
(declare-fun A11 () Bool)
(declare-fun A12 () Bool)
(declare-fun A13 () Bool)
(declare-fun A14 () Bool)
(declare-fun A15 () Bool)
(declare-fun A16 () Bool)
(declare-fun A17 () Bool)
(declare-fun A18 () Bool)
(declare-fun A19 () Bool)
(declare-fun A20 () Bool)
(declare-fun A21 () Bool)
(declare-fun A23 () Bool)
(declare-fun A24 () Bool)
(assert (let ((.def_0 (not A7))) (let ((.def_1 (not A16))) (let ((.def_2 (and .def_1 .def_0))) (let ((.def_3 (not .def_2))) (let ((.def_4 (and A13 A16))) (let ((.def_5 (and .def_4 .def_3))) (let ((.def_6 (or A16 A24))) (let ((.def_7 (not A19))) (let ((.def_8 (and .def_7 A4))) (let ((.def_9 (or .def_8 .def_6))) (let ((.def_10 (and .def_9 .def_5))) (let ((.def_11 (not .def_10))) (let ((.def_12 (not A20))) (let ((.def_13 (and .def_12 A16))) (let ((.def_14 (not .def_13))) (let ((.def_15 (not A1))) (let ((.def_16 (not A4))) (let ((.def_17 (and .def_16 .def_15))) (let ((.def_18 (and .def_17 .def_14))) (let ((.def_19 (not .def_18))) (let ((.def_20 (and .def_0 A23))) (let ((.def_21 (not .def_20))) (let ((.def_22 (not A5))) (let ((.def_23 (and A7 .def_22))) (let ((.def_24 (or .def_23 .def_21))) (let ((.def_25 (and .def_24 .def_19))) (let ((.def_26 (not .def_25))) (let ((.def_27 (or .def_26 .def_11))) (let ((.def_28 (not .def_27))) (let ((.def_29 (not A10))) (let ((.def_30 (or A24 .def_29))) (let ((.def_31 (or A15 .def_15))) (let ((.def_32 (= .def_31 .def_30))) (let ((.def_33 (not .def_32))) (let ((.def_34 (not A21))) (let ((.def_35 (and .def_34 A18))) (let ((.def_36 (not A23))) (let ((.def_37 (and .def_36 A19))) (let ((.def_38 (or .def_37 .def_35))) (let ((.def_39 (and .def_38 .def_33))) (let ((.def_40 (or A1 A24))) (let ((.def_41 (not .def_40))) (let ((.def_42 (and .def_34 A14))) (let ((.def_43 (not .def_42))) (let ((.def_44 (and .def_43 .def_41))) (let ((.def_45 (not .def_44))) (let ((.def_46 (not A2))) (let ((.def_47 (or .def_46 A3))) (let ((.def_48 (not .def_47))) (let ((.def_49 (not A11))) (let ((.def_50 (or A2 .def_49))) (let ((.def_51 (or .def_50 .def_48))) (let ((.def_52 (not .def_51))) (let ((.def_53 (or .def_52 .def_45))) (let ((.def_54 (not .def_53))) (let ((.def_55 (or .def_54 .def_39))) (let ((.def_56 (not .def_55))) (let ((.def_57 (or .def_56 .def_28))) (let ((.def_58 (not .def_57))) (let ((.def_59 (or A12 A8))) (let ((.def_60 (not .def_59))) (let ((.def_61 (and A10 A18))) (let ((.def_62 (and .def_61 .def_60))) (let ((.def_63 (not .def_62))) (let ((.def_64 (and A16 .def_46))) (let ((.def_65 (not .def_64))) (let ((.def_66 (and .def_15 A13))) (let ((.def_67 (or .def_66 .def_65))) (let ((.def_68 (not .def_67))) (let ((.def_69 (and .def_68 .def_63))) (let ((.def_70 (not .def_69))) (let ((.def_71 (and .def_29 A24))) (let ((.def_72 (not A18))) (let ((.def_73 (and A4 .def_72))) (let ((.def_74 (not .def_73))) (let ((.def_75 (or .def_74 .def_71))) (let ((.def_76 (not A12))) (let ((.def_77 (not A13))) (let ((.def_78 (and .def_77 .def_76))) (let ((.def_79 (= A10 .def_7))) (let ((.def_80 (and .def_79 .def_78))) (let ((.def_81 (not .def_80))) (let ((.def_82 (and .def_81 .def_75))) (let ((.def_83 (not .def_82))) (let ((.def_84 (and .def_83 .def_70))) (let ((.def_85 (and A8 .def_15))) (let ((.def_86 (not A14))) (let ((.def_87 (and .def_86 .def_77))) (let ((.def_88 (or .def_87 .def_85))) (let ((.def_89 (not .def_88))) (let ((.def_90 (and .def_49 .def_46))) (let ((.def_91 (or A10 A17))) (let ((.def_92 (not .def_91))) (let ((.def_93 (= .def_92 .def_90))) (let ((.def_94 (not .def_93))) (let ((.def_95 (or .def_94 .def_89))) (let ((.def_96 (not .def_95))) (let ((.def_97 (not A9))) (let ((.def_98 (and A23 .def_97))) (let ((.def_99 (not .def_98))) (let ((.def_100 (not A17))) (let ((.def_101 (or .def_100 A8))) (let ((.def_102 (not .def_101))) (let ((.def_103 (or .def_102 .def_99))) (let ((.def_104 (not .def_103))) (let ((.def_105 (and A7 A21))) (let ((.def_106 (or .def_46 A15))) (let ((.def_107 (not .def_106))) (let ((.def_108 (and .def_107 .def_105))) (let ((.def_109 (and .def_108 .def_104))) (let ((.def_110 (not .def_109))) (let ((.def_111 (and .def_110 .def_96))) (let ((.def_112 (not .def_111))) (let ((.def_113 (or .def_112 .def_84))) (let ((.def_114 (or .def_113 .def_58))) .def_114))))))))))))))))))))))))))))))))))))))))))))))))))))))))))))))))))))))))))))))))))))))))))))))))))))))))))))))))))))
(check-sat)
